experiment/data/lkh-res/Vrp-Set-Golden-n361/Vrp-Set-Golden-n361-lkh/0.lkh1.tour
NAME : 0.137645.tour
COMMENT : Length = 137645
COMMENT : Found by LKH-3 [Keld Helsgaun] Tue Apr  9 02:06:36 2024
TYPE : TOUR
DIMENSION : 393
TOUR_SECTION
1
21
8
81
140
199
254
242
182
194
139
373
236
296
297
298
252
353
312
358
357
356
347
287
382
40
41
101
161
70
97
10
37
36
35
381
93
153
213
272
323
304
330
275
216
156
96
376
237
238
192
293
352
351
306
346
291
286
231
226
387
300
359
360
301
253
361
313
318
317
258
198
389
16
115
76
175
235
136
137
197
138
73
78
77
17
386
170
131
230
191
285
344
343
284
225
164
105
362
259
314
319
320
321
308
326
248
261
260
200
367
14
74
19
20
79
134
122
62
2
55
370
133
241
193
257
316
302
355
256
295
196
391
50
110
169
228
279
246
186
219
168
109
49
383
42
102
162
130
222
190
277
336
335
276
217
157
369
80
141
201
188
266
325
324
303
315
264
255
204
380
57
58
12
118
72
113
112
53
52
51
46
363
47
56
107
116
167
176
227
187
234
179
120
13
18
371
15
24
75
84
135
123
63
3
378
33
34
9
94
69
148
88
28
27
388
288
339
348
349
350
311
345
251
290
289
229
368
54
59
60
119
174
127
67
7
375
26
86
68
146
128
206
265
205
145
85
364
31
91
100
151
211
185
245
278
223
218
163
104
45
379
11
71
165
224
283
338
305
331
271
160
365
22
82
87
142
147
202
207
262
243
183
195
144
25
392
152
203
212
263
244
270
215
184
210
155
150
95
90
30
372
5
65
125
158
103
44
43
98
38
393
106
111
171
172
173
232
292
233
132
178
177
117
385
267
322
327
328
329
309
334
249
269
268
208
377
4
64
124
143
92
83
32
23
366
154
129
214
273
332
333
274
189
209
149
89
29
390
61
121
180
181
240
299
354
307
247
294
239
114
384
220
280
340
341
342
310
337
250
282
281
221
374
6
66
166
126
159
108
99
48
39
-1
EOF
